projet_m2_wvcp/original_wvcp_dzn/r01.clq.dzn
cliques=[{83,134,11,123,22,105,95,0},{55,76,12,124,37,113,106,135,23,96,84,65,1},{31,77,125,2,85,38,24,56,66},{10,4,9,8,2,7,5,6,3,1,0},{25,108,49,69,126,39,4,99},{88,138,59,127,115,26,5,70,15,78},{128,109,89,27,100,40,60,116,6,16,71,50},{41,34,111,62,118,79,72,17,7,102},{42,140,51,91,18,8,119,80,73},{63,52,82,112,121,30,20,131,9,44,36,103,142},{45,104,132,93,21,74,10,53},{12,11,21,20,17,18,19,14,16,13,15},{55,76,12,124,37,113,106,135,23,96,84,65,1},{67,114,32,57,107,86,97,47,13,136},{12,11,21,20,17,18,19,14,16,13,15},{12,11,21,20,17,18,19,14,16,13,15},{128,109,89,27,100,40,60,116,16,6,71,50},{41,34,111,62,118,79,72,17,7,102},{12,11,21,20,17,18,19,14,16,13,15},{29,92,81,120,141,43,19,130,35},{63,52,82,112,121,30,20,131,9,44,36,103,142},{12,11,21,20,17,18,19,14,16,13,15},{25,29,27,28,30,22,23,26,24},{55,76,12,124,37,113,106,135,23,96,84,65,1},{25,29,27,28,30,22,23,26,24},{25,29,27,28,30,22,23,26,24},{25,29,27,28,30,22,23,26,24},{128,109,89,27,100,40,60,116,16,6,71,50},{25,29,27,28,30,22,23,26,24},{25,29,27,28,30,22,23,26,24},{63,52,82,112,121,30,20,131,9,44,36,103,142},{31,77,125,2,85,38,24,56,66},{67,114,32,57,107,86,97,47,13,136},{87,58,48,33,68,137,14,3,98},{41,34,111,62,118,79,72,17,7,102},{29,92,81,120,141,43,19,130,35},{63,52,82,112,121,30,20,131,9,44,36,103,142},{55,76,12,124,37,113,106,135,23,96,84,65,1},{45,41,42,46,39,37,40,44,43,38},{45,41,42,46,39,37,40,44,43,38},{45,41,42,46,39,37,40,44,43,38},{41,34,111,62,118,79,72,17,7,102},{45,41,42,46,39,37,40,44,43,38},{45,41,42,46,39,37,40,44,43,38},{63,52,82,112,121,30,20,131,9,44,36,103,142},{45,41,42,46,39,37,40,44,43,38},{45,41,42,46,39,37,40,44,43,38},{67,114,32,57,107,86,97,47,13,136},{52,51,49,54,48,53,47,50},{25,49,108,69,126,39,4,99},{128,109,89,27,100,40,60,116,16,6,71,50},{42,140,51,91,18,8,119,80,73},{63,52,82,112,121,30,20,131,9,44,36,103,142},{45,104,132,93,21,74,10,53},{122,64,46,133,54,143,75,94},{57,64,63,62,59,61,55,58,60,56},{57,64,63,62,59,61,55,58,60,56},{57,64,63,62,59,61,55,58,60,56},{57,64,63,62,59,61,55,58,60,56},{57,64,63,62,59,61,55,58,60,56},{57,64,63,62,59,61,55,58,60,56},{57,64,63,62,59,61,55,58,60,56},{57,64,63,62,59,61,55,58,60,56},{63,52,82,112,121,30,20,131,9,44,36,103,142},{57,64,63,62,59,61,55,58,60,56},{55,76,12,124,37,113,106,135,23,96,84,65,1},{67,69,72,74,75,68,70,71,65,66,73},{67,114,32,57,107,86,97,47,13,136},{67,69,72,74,75,68,70,71,65,66,73},{67,69,72,74,75,68,70,71,65,66,73},{67,69,72,74,75,68,70,71,65,66,73},{128,109,89,27,100,40,60,116,16,6,71,50},{41,34,111,62,118,79,72,17,7,102},{67,69,72,74,75,68,70,71,65,66,73},{67,69,72,74,75,68,70,71,65,66,73},{67,69,72,74,75,68,70,71,65,66,73},{55,76,12,124,37,113,106,135,23,96,84,65,1},{31,77,125,2,85,38,24,56,66},{88,138,59,127,115,26,5,70,15,78},{41,34,111,62,118,79,72,17,7,102},{42,140,51,91,18,8,119,80,73},{29,92,81,120,141,43,19,130,35},{63,52,82,112,121,30,20,131,9,44,36,103,142},{83,92,88,93,91,89,86,87,85,90,94,84},{83,92,88,93,91,89,86,87,85,90,94,84},{83,92,88,93,91,89,86,87,85,90,94,84},{83,92,88,93,91,89,86,87,85,90,94,84},{83,92,88,93,91,89,86,87,85,90,94,84},{83,92,88,93,91,89,86,87,85,90,94,84},{83,92,88,93,91,89,86,87,85,90,94,84},{83,92,88,93,91,89,86,87,85,90,94,84},{83,92,88,93,91,89,86,87,85,90,94,84},{83,92,88,93,91,89,86,87,85,90,94,84},{83,92,88,93,91,89,86,87,85,90,94,84},{83,92,88,93,91,89,86,87,85,90,94,84},{83,134,11,123,22,105,95,0},{55,76,12,124,37,113,106,135,23,96,84,65,1},{67,114,32,57,107,86,97,47,13,136},{101,104,100,97,96,99,95,102,103,98},{25,108,49,69,126,39,4,99},{128,109,89,27,100,40,60,116,16,6,71,50},{101,61,117,28,110,139,90,129},{41,34,111,62,118,79,72,17,7,102},{63,52,82,112,121,30,20,131,9,44,36,103,142},{45,104,132,93,21,74,10,53},{107,111,108,109,112,110,106,105},{55,76,12,124,37,113,106,135,23,96,84,65,1},{67,114,32,57,107,86,97,47,13,136},{107,111,108,109,112,110,106,105},{128,109,89,27,100,40,60,116,16,6,71,50},{107,111,108,109,112,110,106,105},{41,34,111,62,118,79,72,17,7,102},{63,52,82,112,121,30,20,131,9,44,36,103,142},{55,76,12,124,37,113,106,135,23,96,84,65,1},{67,114,32,57,107,86,97,47,13,136},{114,122,120,118,117,121,113,115,116,119},{114,122,120,118,117,121,113,115,116,119},{114,122,120,118,117,121,113,115,116,119},{41,34,111,62,118,79,72,17,7,102},{114,122,120,118,117,121,113,115,116,119},{114,122,120,118,117,121,113,115,116,119},{63,52,82,112,121,30,20,131,9,44,36,103,142},{114,122,120,118,117,121,113,115,116,119},{128,132,127,126,133,124,123,131,125,130,129},{128,132,127,126,133,124,123,131,125,130,129},{128,132,127,126,133,124,123,131,125,130,129},{128,132,127,126,133,124,123,131,125,130,129},{128,132,127,126,133,124,123,131,125,130,129},{128,132,127,126,133,124,123,131,125,130,129},{128,132,127,126,133,124,123,131,125,130,129},{128,132,127,126,133,124,123,131,125,130,129},{63,52,82,112,121,30,20,131,9,44,36,103,142},{128,132,127,126,133,124,123,131,125,130,129},{128,132,127,126,133,124,123,131,125,130,129},{134,140,138,143,141,135,139,137,136,142},{55,76,12,124,37,113,106,135,23,96,84,65,1},{67,114,32,57,107,86,97,47,13,136},{134,140,138,143,141,135,139,137,136,142},{134,140,138,143,141,135,139,137,136,142},{134,140,138,143,141,135,139,137,136,142},{134,140,138,143,141,135,139,137,136,142},{134,140,138,143,141,135,139,137,136,142},{63,52,82,112,121,30,20,131,9,44,36,103,142},{134,140,138,143,141,135,139,137,136,142}];
nr_cliques=144;
