projet_m2_wvcp/original_wvcp_dzn/r01.dzn
name="r01";
nr_vertices=144;
nr_edges=1280;
neighborhoods=[{1,2,3,4,5,6,7,8,9,10,11,22,83,95,105,123,134},{0,2,3,4,5,6,7,8,9,10,12,23,37,55,65,76,84,96,106,113,124,135},{0,1,3,4,5,6,7,8,9,10,24,31,38,56,66,77,85,125},{0,1,2,4,5,6,7,8,9,10,14,33,48,58,68,87,98,137},{0,1,2,3,5,6,7,8,9,10,25,39,49,69,99,108,126},{0,1,2,3,4,6,7,8,9,10,15,26,59,70,78,88,115,127,138},{0,1,2,3,4,5,7,8,9,10,16,27,40,50,60,71,89,100,109,116,128},{0,1,2,3,4,5,6,8,9,10,17,34,41,62,72,79,102,111,118},{0,1,2,3,4,5,6,7,9,10,18,42,51,73,80,91,119,140},{0,1,2,3,4,5,6,7,8,10,20,30,36,44,52,63,82,103,112,121,131,142},{0,1,2,3,4,5,6,7,8,9,21,45,53,74,93,104,132},{0,12,13,14,15,16,17,18,19,20,21,22,83,95,105,123,134},{1,11,13,14,15,16,17,18,19,20,21,23,37,55,65,76,84,96,106,113,124,135},{11,12,14,15,16,17,18,19,20,21,32,47,57,67,86,97,107,114,136},{3,11,12,13,15,16,17,18,19,20,21,33,48,58,68,87,98,137},{5,11,12,13,14,16,17,18,19,20,21,26,59,70,78,88,115,127,138},{6,11,12,13,14,15,17,18,19,20,21,27,40,50,60,71,89,100,109,116,128},{7,11,12,13,14,15,16,18,19,20,21,34,41,62,72,79,102,111,118},{8,11,12,13,14,15,16,17,19,20,21,42,51,73,80,91,119,140},{11,12,13,14,15,16,17,18,20,21,29,35,43,81,92,120,130,141},{9,11,12,13,14,15,16,17,18,19,21,30,36,44,52,63,82,103,112,121,131,142},{10,11,12,13,14,15,16,17,18,19,20,45,53,74,93,104,132},{0,11,23,24,25,26,27,28,29,30,83,95,105,123,134},{1,12,22,24,25,26,27,28,29,30,37,55,65,76,84,96,106,113,124,135},{2,22,23,25,26,27,28,29,30,31,38,56,66,77,85,125},{4,22,23,24,26,27,28,29,30,39,49,69,99,108,126},{5,15,22,23,24,25,27,28,29,30,59,70,78,88,115,127,138},{6,16,22,23,24,25,26,28,29,30,40,50,60,71,89,100,109,116,128},{22,23,24,25,26,27,29,30,61,90,101,110,117,129,139},{19,22,23,24,25,26,27,28,30,35,43,81,92,120,130,141},{9,20,22,23,24,25,26,27,28,29,36,44,52,63,82,103,112,121,131,142},{2,24,32,33,34,35,36,38,56,66,77,85,125},{13,31,33,34,35,36,47,57,67,86,97,107,114,136},{3,14,31,32,34,35,36,48,58,68,87,98,137},{7,17,31,32,33,35,36,41,62,72,79,102,111,118},{19,29,31,32,33,34,36,43,81,92,120,130,141},{9,20,30,31,32,33,34,35,44,52,63,82,103,112,121,131,142},{1,12,23,38,39,40,41,42,43,44,45,46,55,65,76,84,96,106,113,124,135},{2,24,31,37,39,40,41,42,43,44,45,46,56,66,77,85,125},{4,25,37,38,40,41,42,43,44,45,46,49,69,99,108,126},{6,16,27,37,38,39,41,42,43,44,45,46,50,60,71,89,100,109,116,128},{7,17,34,37,38,39,40,42,43,44,45,46,62,72,79,102,111,118},{8,18,37,38,39,40,41,43,44,45,46,51,73,80,91,119,140},{19,29,35,37,38,39,40,41,42,44,45,46,81,92,120,130,141},{9,20,30,36,37,38,39,40,41,42,43,45,46,52,63,82,103,112,121,131,142},{10,21,37,38,39,40,41,42,43,44,46,53,74,93,104,132},{37,38,39,40,41,42,43,44,45,54,64,75,94,122,133,143},{13,32,48,49,50,51,52,53,54,57,67,86,97,107,114,136},{3,14,33,47,49,50,51,52,53,54,58,68,87,98,137},{4,25,39,47,48,50,51,52,53,54,69,99,108,126},{6,16,27,40,47,48,49,51,52,53,54,60,71,89,100,109,116,128},{8,18,42,47,48,49,50,52,53,54,73,80,91,119,140},{9,20,30,36,44,47,48,49,50,51,53,54,63,82,103,112,121,131,142},{10,21,45,47,48,49,50,51,52,54,74,93,104,132},{46,47,48,49,50,51,52,53,64,75,94,122,133,143},{1,12,23,37,56,57,58,59,60,61,62,63,64,65,76,84,96,106,113,124,135},{2,24,31,38,55,57,58,59,60,61,62,63,64,66,77,85,125},{13,32,47,55,56,58,59,60,61,62,63,64,67,86,97,107,114,136},{3,14,33,48,55,56,57,59,60,61,62,63,64,68,87,98,137},{5,15,26,55,56,57,58,60,61,62,63,64,70,78,88,115,127,138},{6,16,27,40,50,55,56,57,58,59,61,62,63,64,71,89,100,109,116,128},{28,55,56,57,58,59,60,62,63,64,90,101,110,117,129,139},{7,17,34,41,55,56,57,58,59,60,61,63,64,72,79,102,111,118},{9,20,30,36,44,52,55,56,57,58,59,60,61,62,64,82,103,112,121,131,142},{46,54,55,56,57,58,59,60,61,62,63,75,94,122,133,143},{1,12,23,37,55,66,67,68,69,70,71,72,73,74,75,76,84,96,106,113,124,135},{2,24,31,38,56,65,67,68,69,70,71,72,73,74,75,77,85,125},{13,32,47,57,65,66,68,69,70,71,72,73,74,75,86,97,107,114,136},{3,14,33,48,58,65,66,67,69,70,71,72,73,74,75,87,98,137},{4,25,39,49,65,66,67,68,70,71,72,73,74,75,99,108,126},{5,15,26,59,65,66,67,68,69,71,72,73,74,75,78,88,115,127,138},{6,16,27,40,50,60,65,66,67,68,69,70,72,73,74,75,89,100,109,116,128},{7,17,34,41,62,65,66,67,68,69,70,71,73,74,75,79,102,111,118},{8,18,42,51,65,66,67,68,69,70,71,72,74,75,80,91,119,140},{10,21,45,53,65,66,67,68,69,70,71,72,73,75,93,104,132},{46,54,64,65,66,67,68,69,70,71,72,73,74,94,122,133,143},{1,12,23,37,55,65,77,78,79,80,81,82,84,96,106,113,124,135},{2,24,31,38,56,66,76,78,79,80,81,82,85,125},{5,15,26,59,70,76,77,79,80,81,82,88,115,127,138},{7,17,34,41,62,72,76,77,78,80,81,82,102,111,118},{8,18,42,51,73,76,77,78,79,81,82,91,119,140},{19,29,35,43,76,77,78,79,80,82,92,120,130,141},{9,20,30,36,44,52,63,76,77,78,79,80,81,103,112,121,131,142},{0,11,22,84,85,86,87,88,89,90,91,92,93,94,95,105,123,134},{1,12,23,37,55,65,76,83,85,86,87,88,89,90,91,92,93,94,96,106,113,124,135},{2,24,31,38,56,66,77,83,84,86,87,88,89,90,91,92,93,94,125},{13,32,47,57,67,83,84,85,87,88,89,90,91,92,93,94,97,107,114,136},{3,14,33,48,58,68,83,84,85,86,88,89,90,91,92,93,94,98,137},{5,15,26,59,70,78,83,84,85,86,87,89,90,91,92,93,94,115,127,138},{6,16,27,40,50,60,71,83,84,85,86,87,88,90,91,92,93,94,100,109,116,128},{28,61,83,84,85,86,87,88,89,91,92,93,94,101,110,117,129,139},{8,18,42,51,73,80,83,84,85,86,87,88,89,90,92,93,94,119,140},{19,29,35,43,81,83,84,85,86,87,88,89,90,91,93,94,120,130,141},{10,21,45,53,74,83,84,85,86,87,88,89,90,91,92,94,104,132},{46,54,64,75,83,84,85,86,87,88,89,90,91,92,93,122,133,143},{0,11,22,83,96,97,98,99,100,101,102,103,104,105,123,134},{1,12,23,37,55,65,76,84,95,97,98,99,100,101,102,103,104,106,113,124,135},{13,32,47,57,67,86,95,96,98,99,100,101,102,103,104,107,114,136},{3,14,33,48,58,68,87,95,96,97,99,100,101,102,103,104,137},{4,25,39,49,69,95,96,97,98,100,101,102,103,104,108,126},{6,16,27,40,50,60,71,89,95,96,97,98,99,101,102,103,104,109,116,128},{28,61,90,95,96,97,98,99,100,102,103,104,110,117,129,139},{7,17,34,41,62,72,79,95,96,97,98,99,100,101,103,104,111,118},{9,20,30,36,44,52,63,82,95,96,97,98,99,100,101,102,104,112,121,131,142},{10,21,45,53,74,93,95,96,97,98,99,100,101,102,103,132},{0,11,22,83,95,106,107,108,109,110,111,112,123,134},{1,12,23,37,55,65,76,84,96,105,107,108,109,110,111,112,113,124,135},{13,32,47,57,67,86,97,105,106,108,109,110,111,112,114,136},{4,25,39,49,69,99,105,106,107,109,110,111,112,126},{6,16,27,40,50,60,71,89,100,105,106,107,108,110,111,112,116,128},{28,61,90,101,105,106,107,108,109,111,112,117,129,139},{7,17,34,41,62,72,79,102,105,106,107,108,109,110,112,118},{9,20,30,36,44,52,63,82,103,105,106,107,108,109,110,111,121,131,142},{1,12,23,37,55,65,76,84,96,106,114,115,116,117,118,119,120,121,122,124,135},{13,32,47,57,67,86,97,107,113,115,116,117,118,119,120,121,122,136},{5,15,26,59,70,78,88,113,114,116,117,118,119,120,121,122,127,138},{6,16,27,40,50,60,71,89,100,109,113,114,115,117,118,119,120,121,122,128},{28,61,90,101,110,113,114,115,116,118,119,120,121,122,129,139},{7,17,34,41,62,72,79,102,111,113,114,115,116,117,119,120,121,122},{8,18,42,51,73,80,91,113,114,115,116,117,118,120,121,122,140},{19,29,35,43,81,92,113,114,115,116,117,118,119,121,122,130,141},{9,20,30,36,44,52,63,82,103,112,113,114,115,116,117,118,119,120,122,131,142},{46,54,64,75,94,113,114,115,116,117,118,119,120,121,133,143},{0,11,22,83,95,105,124,125,126,127,128,129,130,131,132,133,134},{1,12,23,37,55,65,76,84,96,106,113,123,125,126,127,128,129,130,131,132,133,135},{2,24,31,38,56,66,77,85,123,124,126,127,128,129,130,131,132,133},{4,25,39,49,69,99,108,123,124,125,127,128,129,130,131,132,133},{5,15,26,59,70,78,88,115,123,124,125,126,128,129,130,131,132,133,138},{6,16,27,40,50,60,71,89,100,109,116,123,124,125,126,127,129,130,131,132,133},{28,61,90,101,110,117,123,124,125,126,127,128,130,131,132,133,139},{19,29,35,43,81,92,120,123,124,125,126,127,128,129,131,132,133,141},{9,20,30,36,44,52,63,82,103,112,121,123,124,125,126,127,128,129,130,132,133,142},{10,21,45,53,74,93,104,123,124,125,126,127,128,129,130,131,133},{46,54,64,75,94,122,123,124,125,126,127,128,129,130,131,132,143},{0,11,22,83,95,105,123,135,136,137,138,139,140,141,142,143},{1,12,23,37,55,65,76,84,96,106,113,124,134,136,137,138,139,140,141,142,143},{13,32,47,57,67,86,97,107,114,134,135,137,138,139,140,141,142,143},{3,14,33,48,58,68,87,98,134,135,136,138,139,140,141,142,143},{5,15,26,59,70,78,88,115,127,134,135,136,137,139,140,141,142,143},{28,61,90,101,110,117,129,134,135,136,137,138,140,141,142,143},{8,18,42,51,73,80,91,119,134,135,136,137,138,139,141,142,143},{19,29,35,43,81,92,120,130,134,135,136,137,138,139,140,142,143},{9,20,30,36,44,52,63,82,103,112,121,131,134,135,136,137,138,139,140,141,143},{46,54,64,75,94,122,133,134,135,136,137,138,139,140,141,142}];
weights=[210,214,385,262,429,343,298,353,391,401,447,550,560,287,306,270,298,401,395,315,504,526,453,365,274,695,346,560,552,679,509,650,689,433,655,281,324,475,320,510,424,666,656,366,380,685,607,337,456,591,207,600,639,344,528,572,269,667,484,583,365,582,594,642,663,232,209,699,361,569,334,269,518,205,485,470,562,631,231,550,214,652,566,703,287,374,531,485,627,560,323,572,659,574,299,263,310,387,220,268,478,626,240,226,615,386,433,638,591,567,526,616,537,465,699,379,360,553,585,216,609,517,674,502,536,467,543,551,641,224,301,472,597,541,658,396,287,357,592,373,653,445,206,527];
